10 10
0 0 0 4.3
0 10 43 1.5
0 20 58 1.4
0 30 72 0.9
0 40 81 4.7
0 50 128 2.1
0 60 149 2.2
0 70 171 4.1
0 80 212 4.1
0 90 253 2.5
1 0 0 4.3
1 10 43 1.5
1 20 58 1.4
1 30 72 0.9
1 40 81 4.7
1 50 128 2.1
1 60 149 2.2
1 70 171 4.1
1 80 212 4.1
1 90 253 2.5
2 0 0 4.3
2 10 43 1.5
2 20 58 1.4
2 30 72 0.9
2 40 81 4.7
2 50 128 2.1
2 60 149 2.2
2 70 171 4.1
2 80 212 4.1
2 90 253 2.5
3 0 0 4.3
3 10 43 1.5
3 20 58 1.4
3 30 72 0.9
3 40 81 4.7
3 50 128 2.1
3 60 149 2.2
3 70 171 4.1
3 80 212 4.1
3 90 253 2.5
4 0 0 4.3
4 10 43 1.5
4 20 58 1.4
4 30 72 0.9
4 40 81 4.7
4 50 128 2.1
4 60 149 2.2
4 70 171 4.1
4 80 212 4.1
4 90 253 2.5
5 0 0 4.3
5 10 43 1.5
5 20 58 1.4
5 30 72 0.9
5 40 81 4.7
5 50 128 2.1
5 60 149 2.2
5 70 171 4.1
5 80 212 4.1
5 90 253 2.5
6 0 0 4.3
6 10 43 1.5
6 20 58 1.4
6 30 72 0.9
6 40 81 4.7
6 50 128 2.1
6 60 149 2.2
6 70 171 4.1
6 80 212 4.1
6 90 253 2.5
7 0 0 4.3
7 10 43 1.5
7 20 58 1.4
7 30 72 0.9
7 40 81 4.7
7 50 128 2.1
7 60 149 2.2
7 70 171 4.1
7 80 212 4.1
7 90 253 2.5
8 0 0 4.3
8 10 43 1.5
8 20 58 1.4
8 30 72 0.9
8 40 81 4.7
8 50 128 2.1
8 60 149 2.2
8 70 171 4.1
8 80 212 4.1
8 90 253 2.5
9 0 0 4.3
9 10 43 1.5
9 20 58 1.4
9 30 72 0.9
9 40 81 4.7
9 50 128 2.1
9 60 149 2.2
9 70 171 4.1
9 80 212 4.1
9 90 253 2.5
